* ENCODING=ISO-8859-1
NAME          CPLEX
ROWS
 N  obj1    
 G  c1      
 G  c2      
 G  c3      
 G  c4      
 G  c5      
 G  c6      
 G  c7      
 G  c8      
 G  c9      
 G  c10     
 G  c11     
 G  c12     
 G  c13     
 G  c14     
 G  c15     
 G  c16     
 G  c17     
 G  c18     
 G  c19     
 G  c20     
 G  c21     
 G  c22     
 G  c23     
 G  c24     
 G  c25     
 G  c26     
 G  c27     
 G  c28     
 G  c29     
 G  c30     
 G  c31     
 G  c32     
 G  c33     
 G  c34     
 G  c35     
COLUMNS
    MARK0000  'MARKER'                 'INTORG'
    x1        obj1                            1
    x1        c2                            933
    x1        c3                            950
    x1        c7                            378
    x2        obj1                            1
    x2        c9                            990
    x2        c15                           241
    x2        c20                           429
    x2        c26                           437
    x3        obj1                            1
    x3        c2                            259
    x3        c11                           190
    x3        c18                           822
    x4        obj1                            1
    x4        c1                            849
    x4        c10                           782
    x4        c32                           595
    x4        c34                           879
    x5        obj1                            1
    x5        c3                            444
    x5        c16                           512
    x6        obj1                            1
    x6        c16                           801
    x7        obj1                            1
    x7        c12                           941
    x7        c15                           727
    x7        c28                           325
    x7        c31                           610
    x8        obj1                            1
    x8        c4                            278
    x8        c5                            246
    x8        c12                           809
    x8        c13                           462
    x8        c19                           969
    x8        c30                           314
    x8        c32                           970
    x8        c33                           329
    x9        obj1                            1
    x9        c9                            656
    x9        c12                           994
    x9        c23                           990
    x9        c24                           597
    x10       obj1                            1
    x10       c17                           198
    x10       c29                           736
    x10       c31                           797
    x10       c34                           446
    x11       obj1                            1
    x11       c4                            435
    x11       c8                            683
    x11       c9                            445
    x11       c10                           297
    x11       c14                           617
    x11       c17                           874
    x11       c24                           400
    x12       obj1                            1
    x12       c29                           539
    x12       c34                           615
    x13       obj1                            1
    x13       c4                            101
    x13       c16                           846
    x13       c31                           910
    x14       obj1                            1
    x14       c17                           192
    x14       c26                           906
    x15       obj1                            1
    x15       c10                           872
    x15       c14                           367
    x15       c23                           466
    x15       c24                           645
    x15       c29                           156
    x15       c32                           518
    x16       obj1                            1
    x16       c21                           134
    x16       c26                           871
    x16       c27                           200
    x16       c33                           124
    x17       obj1                            1
    x17       c16                           216
    x17       c28                           209
    x18       obj1                            1
    x18       c11                           301
    x18       c21                           560
    x19       obj1                            1
    x19       c11                           488
    x19       c35                           862
    x20       obj1                            1
    x20       c26                           787
    x21       obj1                            1
    x21       c9                            188
    x21       c14                           478
    x22       obj1                            1
    x22       c3                            702
    x22       c6                            737
    x22       c8                            168
    x22       c22                           899
    x22       c24                           218
    x22       c33                           622
    x23       obj1                            1
    x23       c16                           533
    x23       c18                           609
    x23       c29                           926
    x23       c31                           954
    x23       c35                           508
    x24       obj1                            1
    x24       c26                           892
    x24       c29                           592
    x25       obj1                            1
    x25       c20                           182
    x25       c25                           326
    x26       obj1                            1
    x26       c2                            841
    x26       c6                            585
    x26       c12                           988
    x26       c27                           784
    x26       c30                           337
    x27       obj1                            1
    x27       c8                            430
    x27       c10                           838
    x28       obj1                            1
    x28       c6                            534
    x28       c22                           943
    x28       c28                           652
    x28       c33                           905
    x29       obj1                            1
    x29       c7                            377
    x29       c28                           869
    x30       obj1                            1
    x30       c8                            469
    x30       c19                           396
    x30       c25                           330
    x30       c28                           949
    x30       c29                           386
    x31       obj1                            1
    x31       c16                           890
    x31       c28                           206
    x31       c30                           743
    x32       obj1                            1
    x32       c1                            225
    x32       c35                           908
    x33       obj1                            1
    x33       c13                           336
    x33       c30                           844
    x34       obj1                            1
    x34       c23                           601
    x34       c27                           920
    x35       obj1                            1
    x35       c7                            386
    x35       c25                           789
    x36       obj1                            1
    x36       c15                           494
    x36       c18                           395
    x36       c21                           275
    x36       c35                           413
    x37       obj1                            1
    x37       c23                           588
    x37       c24                           167
    x38       obj1                            1
    x38       c13                           355
    x38       c15                           242
    x38       c19                           189
    x39       obj1                            1
    x39       c27                           208
    x39       c34                           841
    x40       obj1                            1
    x40       c7                            564
    x40       c10                           388
    x40       c12                           977
    x40       c14                           744
    x41       obj1                            1
    x41       c13                           788
    x41       c24                           137
    x41       c34                           863
    x42       obj1                            1
    x42       c7                            715
    x42       c27                           102
    x43       obj1                            1
    x43       c2                            251
    x43       c7                            682
    x43       c30                           124
    x44       obj1                            1
    x44       c12                           127
    x44       c13                           358
    x44       c16                           104
    x44       c20                           830
    x44       c27                           651
    x44       c28                           706
    x44       c30                           803
    x45       obj1                            1
    x45       c3                            997
    x45       c22                           491
    x45       c29                           782
    x45       c32                           734
    x46       obj1                            1
    x46       c9                            409
    x46       c11                           714
    x46       c34                           247
    x47       obj1                            1
    x47       c9                            607
    x47       c15                           935
    x47       c16                           125
    x47       c24                           904
    x48       obj1                            1
    x49       obj1                            1
    x49       c1                            320
    x49       c8                            235
    x49       c23                           104
    x49       c26                           144
    x50       obj1                            1
    x50       c16                           492
    x50       c19                           346
    x50       c24                           465
    x50       c31                           163
    x51       obj1                            1
    x51       c13                           194
    x51       c21                           208
    x52       obj1                            1
    x52       c4                            282
    x52       c9                            263
    x52       c13                           741
    x52       c16                           310
    x52       c17                           828
    x52       c27                           627
    x53       obj1                            1
    x53       c10                           612
    x53       c12                           382
    x53       c29                           636
    x53       c32                           640
    x54       obj1                            1
    x54       c23                           127
    x55       obj1                            1
    x55       c7                            642
    x55       c24                           872
    x55       c27                           993
    x55       c28                           155
    x55       c32                           138
    x56       obj1                            1
    x56       c10                           981
    x56       c17                           966
    x57       obj1                            1
    x57       c11                           120
    x57       c29                           306
    x58       obj1                            1
    x58       c17                           553
    x58       c19                           418
    x59       obj1                            1
    x59       c13                           439
    x59       c17                           500
    x59       c30                           301
    x60       obj1                            1
    x60       c20                           174
    x60       c32                           860
    x61       obj1                            1
    x61       c2                            591
    x61       c5                            332
    x61       c18                           581
    x61       c23                           435
    x62       obj1                            1
    x62       c5                            372
    x62       c22                           952
    x62       c24                           754
    x62       c27                           263
    x62       c28                           894
    x63       obj1                            1
    x63       c4                            160
    x63       c12                           931
    x63       c25                           871
    x63       c27                           578
    x64       obj1                            1
    x64       c21                           436
    x65       obj1                            1
    x65       c6                            653
    x65       c7                            425
    x65       c10                           292
    x65       c14                           745
    x66       obj1                            1
    x66       c4                            626
    x66       c6                            572
    x66       c9                            659
    x66       c33                           413
    x67       obj1                            1
    x67       c14                           198
    x67       c21                           891
    x67       c28                           648
    x67       c29                           555
    x67       c34                           322
    x68       obj1                            1
    x68       c19                           332
    x68       c31                           175
    x69       obj1                            1
    x69       c1                            588
    x69       c3                            672
    x69       c5                            487
    x69       c18                           649
    x69       c25                           312
    x70       obj1                            1
    x70       c21                           477
    x70       c31                           765
    x70       c33                           470
    MARK0001  'MARKER'                 'INTEND'
RHS
    rhs       c1                            991
    rhs       c2                           1438
    rhs       c3                           1883
    rhs       c4                            941
    rhs       c5                            719
    rhs       c6                           1541
    rhs       c7                           2085
    rhs       c8                            993
    rhs       c9                           2109
    rhs       c10                          2531
    rhs       c11                           907
    rhs       c12                          3075
    rhs       c13                          1837
    rhs       c14                          1575
    rhs       c15                          1320
    rhs       c16                          2415
    rhs       c17                          2056
    rhs       c18                          1528
    rhs       c19                          1325
    rhs       c20                           808
    rhs       c21                          1491
    rhs       c22                          1643
    rhs       c23                          1656
    rhs       c24                          2580
    rhs       c25                          1314
    rhs       c26                          2019
    rhs       c27                          2663
    rhs       c28                          2807
    rhs       c29                          2807
    rhs       c30                          1733
    rhs       c31                          2187
    rhs       c32                          2228
    rhs       c33                          1432
    rhs       c34                          2107
    rhs       c35                          1346
BOUNDS
 LI bnd       x1        0
 LI bnd       x2        0
 LI bnd       x3        0
 LI bnd       x4        0
 LI bnd       x5        0
 LI bnd       x6        0
 LI bnd       x7        0
 LI bnd       x8        0
 LI bnd       x9        0
 LI bnd       x10       0
 LI bnd       x11       0
 LI bnd       x12       0
 LI bnd       x13       0
 LI bnd       x14       0
 LI bnd       x15       0
 LI bnd       x16       0
 LI bnd       x17       0
 LI bnd       x18       0
 LI bnd       x19       0
 LI bnd       x20       0
 LI bnd       x21       0
 LI bnd       x22       0
 LI bnd       x23       0
 LI bnd       x24       0
 LI bnd       x25       0
 LI bnd       x26       0
 LI bnd       x27       0
 LI bnd       x28       0
 LI bnd       x29       0
 LI bnd       x30       0
 LI bnd       x31       0
 LI bnd       x32       0
 LI bnd       x33       0
 LI bnd       x34       0
 LI bnd       x35       0
 LI bnd       x36       0
 LI bnd       x37       0
 LI bnd       x38       0
 LI bnd       x39       0
 LI bnd       x40       0
 LI bnd       x41       0
 LI bnd       x42       0
 LI bnd       x43       0
 LI bnd       x44       0
 LI bnd       x45       0
 LI bnd       x46       0
 LI bnd       x47       0
 LI bnd       x48       0
 LI bnd       x49       0
 LI bnd       x50       0
 LI bnd       x51       0
 LI bnd       x52       0
 LI bnd       x53       0
 LI bnd       x54       0
 LI bnd       x55       0
 LI bnd       x56       0
 LI bnd       x57       0
 LI bnd       x58       0
 LI bnd       x59       0
 LI bnd       x60       0
 LI bnd       x61       0
 LI bnd       x62       0
 LI bnd       x63       0
 LI bnd       x64       0
 LI bnd       x65       0
 LI bnd       x66       0
 LI bnd       x67       0
 LI bnd       x68       0
 LI bnd       x69       0
 LI bnd       x70       0
ENDATA
